************************************************************************
file with basedata            : mm43_.bas
initial value random generator: 550305761
************************************************************************
projects                      :  1
jobs (incl. supersource/sink ):  12
horizon                       :  76
RESOURCES
  - renewable                 :  2   R
  - nonrenewable              :  2   N
  - doubly constrained        :  0   D
************************************************************************
PROJECT INFORMATION:
pronr.  #jobs rel.date duedate tardcost  MPM-Time
    1     10      0        9        8        9
************************************************************************
PRECEDENCE RELATIONS:
jobnr.    #modes  #successors   successors
   0        1          3           1   2   3
   1        3          1           6
   2        3          2           5   8
   3        3          3           4   5   7
   4        3          2           9  10
   5        3          1          10
   6        3          1           8
   7        3          2           9  10
   8        3          1          11
   9        3          1          11
  10        3          1          11
  11        1          0        
************************************************************************
REQUESTS/DURATIONS:
jobnr. mode duration  R 1  R 2  R 3  R 4  E(W 1)  E(W 2)  E(W 3)
------------------------------------------------------------------------
  0      1     0       0    0    0    0     0       0       0
  1      1     5       3    4    0    3    35       0      15
  2      1     2       7    7    4    0    28       8       0
  3      1     3       4    8    0    6    36       0      18
  4      1     2       1    9    5    0    22      10       0
  5      1     3       4    9    8    0    39      24       0
  6      1     2       3    8    0    6    22       0      12
  7      1     3       9    8    0    9    51       0      27
  8      1     1       8    7    1    0    15       2       0
  9      1     3       5    3    0    8    24       0      24
 10      1     1       9    7    0   10    16       0      10
 11      1     0       0    0    0    0     0       0       0
************************************************************************
RESOURCEAVAILABILITIES:
  R 1  R 2  R 3
   32   34   50
************************************************************************
RESOURCE LIMITS:
jobnr.  l(R 1)  u(R 1)  l(R 2)  u(R 2)  l(R 3)  u(R 3)
------------------------------------------------------------------------
  0        0       0       0       0       0       0
  1        4       7       0       0       2       3
  2        8      14       2       4       0       0
  3        6      12       0       0       3       6
  4        6      11       3       5       0       0
  5        7      13       4       8       0       0
  6        6      11       0       0       3       6
  7        9      17       0       0       5       9
  8        8      15       1       2       0       0
  9        5       8       0       0       4       8
 10        9      16       0       0       5      10
 11        0       0       0       0       0       0
************************************************************************
SCENARIOS:
------------------------------------------------------------------------
RESOURCE k = 1
s = 1: (0, 26, 27, 40, 26, 51, 20, 41, 12, 15, 12, 0)
s = 2: (0, 37, 24, 30, 25, 41, 22, 49, 20, 24, 15, 0)
s = 3: (0, 20, 28, 25, 21, 32, 23, 54, 29, 33, 10, 0)
s = 4: (0, 23, 32, 20, 14, 47, 12, 32, 17, 41, 11, 0)
s = 5: (0, 32, 24, 30, 17, 26, 33, 75, 13, 19, 12, 0)
s = 6: (0, 40, 34, 34, 35, 54, 16, 43, 11, 15, 12, 0)
s = 7: (0, 54, 30, 29, 22, 45, 16, 62, 12, 23, 13, 0)
s = 8: (0, 35, 18, 23, 18, 36, 19, 48, 18, 24, 10, 0)
s = 9: (0, 37, 23, 30, 15, 35, 17, 52, 14, 16, 12, 0)
s = 10: (0, 45, 21, 46, 17, 47, 21, 31, 11, 28, 13, 0)
s = 11: (0, 57, 25, 48, 24, 27, 32, 48, 17, 23, 19, 0)
s = 12: (0, 33, 22, 25, 20, 39, 20, 59, 17, 16, 14, 0)
s = 13: (0, 33, 24, 23, 21, 48, 22, 63, 19, 23, 10, 0)
s = 14: (0, 28, 33, 26, 31, 40, 17, 70, 10, 16, 19, 0)
s = 15: (0, 55, 27, 34, 13, 46, 26, 34, 12, 22, 11, 0)
s = 16: (0, 29, 29, 42, 17, 57, 18, 66, 16, 26, 12, 0)
s = 17: (0, 26, 18, 44, 34, 49, 26, 48, 11, 23, 20, 0)
s = 18: (0, 22, 21, 35, 25, 34, 29, 52, 17, 23, 15, 0)
s = 19: (0, 53, 29, 33, 16, 37, 25, 32, 18, 24, 13, 0)
s = 20: (0, 29, 29, 34, 17, 36, 25, 44, 12, 32, 16, 0)
s = 21: (0, 29, 28, 54, 16, 46, 16, 39, 12, 23, 14, 0)
s = 22: (0, 20, 35, 34, 29, 33, 19, 44, 19, 21, 18, 0)
s = 23: (0, 32, 38, 29, 22, 33, 17, 44, 14, 19, 20, 0)
s = 24: (0, 36, 39, 35, 17, 24, 22, 42, 14, 30, 18, 0)
s = 25: (0, 24, 34, 43, 30, 34, 28, 58, 17, 13, 16, 0)
s = 26: (0, 59, 22, 25, 12, 27, 18, 36, 18, 15, 17, 0)
s = 27: (0, 27, 36, 35, 25, 42, 28, 31, 15, 15, 23, 0)
s = 28: (0, 35, 40, 37, 17, 46, 22, 43, 16, 22, 12, 0)
s = 29: (0, 30, 21, 33, 19, 31, 34, 33, 12, 16, 9, 0)
s = 30: (0, 38, 27, 57, 25, 32, 33, 45, 12, 24, 9, 0)
s = 31: (0, 43, 22, 20, 18, 43, 28, 72, 14, 26, 25, 0)
s = 32: (0, 40, 49, 34, 20, 20, 26, 59, 16, 30, 13, 0)
s = 33: (0, 44, 36, 59, 29, 25, 16, 58, 13, 15, 16, 0)
s = 34: (0, 32, 24, 33, 19, 42, 23, 33, 10, 27, 17, 0)
s = 35: (0, 38, 25, 64, 23, 37, 21, 56, 10, 28, 15, 0)
s = 36: (0, 33, 31, 27, 36, 28, 16, 58, 19, 18, 19, 0)
s = 37: (0, 31, 26, 40, 23, 35, 38, 65, 14, 17, 10, 0)
s = 38: (0, 33, 29, 31, 14, 52, 24, 36, 18, 31, 11, 0)
s = 39: (0, 35, 31, 22, 13, 27, 19, 53, 13, 22, 23, 0)
s = 40: (0, 40, 34, 44, 31, 34, 13, 72, 11, 23, 10, 0)
s = 41: (0, 38, 27, 41, 22, 56, 28, 70, 10, 37, 18, 0)
s = 42: (0, 29, 20, 31, 19, 44, 20, 46, 10, 23, 19, 0)
s = 43: (0, 28, 25, 30, 14, 29, 17, 34, 16, 34, 12, 0)
s = 44: (0, 44, 32, 36, 26, 49, 21, 53, 16, 19, 10, 0)
s = 45: (0, 36, 43, 31, 24, 45, 15, 46, 20, 29, 10, 0)
s = 46: (0, 51, 35, 48, 25, 46, 14, 79, 15, 31, 22, 0)
s = 47: (0, 33, 21, 42, 28, 30, 17, 51, 24, 21, 18, 0)
s = 48: (0, 30, 33, 23, 20, 45, 18, 59, 12, 16, 15, 0)
s = 49: (0, 26, 19, 21, 16, 34, 29, 52, 21, 23, 11, 0)
s = 50: (0, 29, 34, 48, 26, 24, 34, 44, 13, 20, 22, 0)
s = 51: (0, 56, 31, 34, 37, 32, 14, 92, 15, 25, 20, 0)
s = 52: (0, 45, 31, 34, 30, 26, 16, 28, 13, 26, 11, 0)
s = 53: (0, 33, 37, 35, 20, 34, 15, 41, 13, 40, 11, 0)
s = 54: (0, 49, 36, 26, 25, 31, 24, 65, 15, 20, 25, 0)
s = 55: (0, 27, 39, 39, 14, 40, 17, 41, 15, 43, 18, 0)
s = 56: (0, 36, 23, 39, 20, 42, 28, 42, 13, 27, 15, 0)
s = 57: (0, 42, 28, 55, 19, 37, 22, 49, 15, 25, 19, 0)
s = 58: (0, 48, 38, 22, 26, 47, 36, 47, 18, 33, 12, 0)
s = 59: (0, 38, 37, 32, 16, 25, 15, 34, 13, 19, 12, 0)
s = 60: (0, 40, 20, 38, 14, 26, 28, 43, 10, 21, 15, 0)
s = 61: (0, 29, 23, 50, 33, 34, 21, 36, 15, 27, 19, 0)
s = 62: (0, 31, 24, 52, 18, 29, 29, 32, 11, 25, 27, 0)
s = 63: (0, 57, 34, 45, 25, 27, 20, 33, 13, 16, 23, 0)
s = 64: (0, 45, 28, 31, 27, 40, 21, 40, 12, 34, 16, 0)
s = 65: (0, 20, 26, 31, 24, 39, 12, 40, 21, 30, 17, 0)
s = 66: (0, 34, 23, 47, 22, 43, 28, 38, 15, 16, 10, 0)
s = 67: (0, 27, 32, 50, 19, 39, 31, 42, 13, 25, 17, 0)
s = 68: (0, 35, 27, 23, 25, 25, 17, 30, 15, 23, 10, 0)
s = 69: (0, 29, 20, 25, 25, 51, 23, 70, 13, 29, 16, 0)
s = 70: (0, 40, 27, 38, 19, 39, 30, 48, 15, 20, 12, 0)
s = 71: (0, 25, 19, 41, 24, 43, 32, 50, 22, 20, 17, 0)
s = 72: (0, 42, 32, 38, 23, 26, 20, 64, 12, 26, 16, 0)
s = 73: (0, 26, 32, 41, 16, 48, 24, 89, 18, 24, 15, 0)
s = 74: (0, 27, 32, 36, 24, 34, 22, 48, 16, 35, 13, 0)
s = 75: (0, 27, 25, 45, 23, 38, 18, 43, 25, 21, 19, 0)
s = 76: (0, 41, 29, 27, 35, 29, 20, 60, 22, 26, 17, 0)
s = 77: (0, 27, 34, 41, 26, 46, 24, 28, 15, 29, 13, 0)
s = 78: (0, 33, 22, 33, 42, 40, 28, 40, 12, 15, 14, 0)
s = 79: (0, 47, 26, 34, 22, 46, 24, 60, 12, 40, 29, 0)
s = 80: (0, 27, 28, 26, 26, 42, 40, 49, 10, 23, 15, 0)
s = 81: (0, 28, 39, 32, 20, 38, 18, 55, 13, 23, 10, 0)
s = 82: (0, 34, 26, 34, 20, 53, 31, 61, 27, 23, 12, 0)
s = 83: (0, 39, 38, 24, 17, 34, 21, 35, 17, 14, 19, 0)
s = 84: (0, 24, 35, 39, 22, 55, 16, 37, 26, 18, 24, 0)
s = 85: (0, 48, 28, 29, 22, 36, 21, 78, 19, 25, 16, 0)
s = 86: (0, 42, 23, 26, 27, 38, 18, 55, 14, 23, 20, 0)
s = 87: (0, 34, 30, 42, 30, 28, 22, 65, 9, 26, 20, 0)
s = 88: (0, 45, 41, 41, 28, 54, 25, 32, 17, 27, 15, 0)
s = 89: (0, 28, 20, 45, 18, 27, 18, 71, 22, 28, 20, 0)
s = 90: (0, 21, 35, 28, 19, 33, 19, 76, 12, 14, 18, 0)
s = 91: (0, 43, 24, 52, 36, 28, 21, 42, 22, 24, 22, 0)
s = 92: (0, 47, 29, 22, 28, 44, 18, 46, 22, 24, 19, 0)
s = 93: (0, 40, 36, 37, 18, 43, 16, 49, 10, 40, 18, 0)
s = 94: (0, 31, 35, 47, 15, 36, 15, 51, 15, 29, 27, 0)
s = 95: (0, 37, 24, 31, 24, 24, 20, 36, 20, 41, 14, 0)
s = 96: (0, 37, 37, 33, 19, 42, 32, 56, 19, 24, 22, 0)
s = 97: (0, 44, 47, 40, 21, 48, 36, 46, 13, 27, 18, 0)
s = 98: (0, 32, 32, 43, 24, 41, 20, 48, 28, 24, 15, 0)
s = 99: (0, 36, 22, 35, 16, 25, 19, 57, 22, 34, 16, 0)
s = 100: (0, 41, 38, 39, 26, 39, 15, 66, 24, 19, 15, 0)
s = 101: (0, 35, 26, 33, 18, 44, 29, 52, 16, 22, 18, 0)
s = 102: (0, 37, 37, 31, 21, 54, 23, 41, 15, 35, 15, 0)
s = 103: (0, 49, 43, 44, 20, 24, 33, 50, 10, 17, 27, 0)
s = 104: (0, 45, 24, 52, 28, 28, 27, 66, 15, 28, 12, 0)
s = 105: (0, 20, 30, 23, 26, 29, 20, 59, 20, 21, 19, 0)
s = 106: (0, 24, 23, 69, 36, 53, 17, 58, 18, 34, 26, 0)
s = 107: (0, 30, 17, 35, 16, 34, 22, 42, 12, 16, 14, 0)
s = 108: (0, 49, 22, 21, 16, 46, 23, 49, 14, 22, 21, 0)
s = 109: (0, 47, 22, 33, 24, 36, 22, 87, 12, 20, 20, 0)
s = 110: (0, 40, 32, 32, 13, 29, 21, 36, 14, 34, 20, 0)
s = 111: (0, 42, 28, 52, 19, 36, 18, 30, 17, 22, 11, 0)
s = 112: (0, 55, 30, 34, 31, 27, 15, 91, 10, 14, 12, 0)
s = 113: (0, 26, 22, 35, 15, 49, 36, 65, 12, 18, 13, 0)
s = 114: (0, 54, 15, 30, 28, 24, 28, 41, 12, 17, 11, 0)
s = 115: (0, 23, 21, 47, 15, 30, 16, 42, 14, 24, 13, 0)
s = 116: (0, 43, 30, 29, 29, 30, 21, 60, 14, 21, 16, 0)
s = 117: (0, 25, 43, 32, 29, 23, 25, 51, 9, 29, 14, 0)
s = 118: (0, 46, 21, 34, 21, 23, 19, 42, 10, 23, 9, 0)
s = 119: (0, 26, 36, 46, 22, 43, 18, 51, 13, 18, 18, 0)
s = 120: (0, 33, 20, 34, 17, 32, 25, 49, 15, 26, 14, 0)
s = 121: (0, 47, 24, 34, 20, 30, 16, 34, 15, 27, 19, 0)
s = 122: (0, 41, 19, 37, 17, 37, 23, 41, 17, 24, 20, 0)
s = 123: (0, 31, 27, 26, 33, 48, 31, 40, 16, 24, 9, 0)
s = 124: (0, 35, 28, 28, 22, 61, 16, 64, 14, 22, 22, 0)
s = 125: (0, 40, 31, 31, 26, 27, 26, 38, 25, 22, 13, 0)
s = 126: (0, 35, 19, 20, 31, 47, 21, 45, 15, 20, 10, 0)
s = 127: (0, 46, 27, 46, 17, 57, 15, 33, 14, 24, 19, 0)
s = 128: (0, 34, 25, 42, 35, 41, 23, 37, 19, 25, 18, 0)
s = 129: (0, 27, 18, 52, 23, 22, 14, 53, 23, 21, 14, 0)
s = 130: (0, 65, 25, 35, 39, 57, 19, 43, 19, 38, 11, 0)
s = 131: (0, 43, 41, 32, 25, 49, 14, 41, 15, 17, 26, 0)
s = 132: (0, 40, 43, 38, 23, 38, 15, 73, 17, 20, 23, 0)
s = 133: (0, 38, 19, 59, 23, 27, 26, 53, 16, 27, 17, 0)
s = 134: (0, 33, 46, 41, 21, 26, 20, 43, 15, 20, 24, 0)
s = 135: (0, 49, 19, 42, 21, 37, 27, 41, 21, 36, 13, 0)
s = 136: (0, 47, 47, 39, 18, 38, 16, 57, 9, 23, 16, 0)
s = 137: (0, 56, 17, 31, 18, 41, 18, 51, 16, 18, 20, 0)
s = 138: (0, 38, 35, 34, 19, 58, 18, 51, 11, 24, 15, 0)
s = 139: (0, 35, 23, 28, 32, 46, 23, 57, 18, 23, 10, 0)
s = 140: (0, 53, 20, 35, 35, 21, 20, 46, 13, 21, 14, 0)
s = 141: (0, 44, 45, 30, 27, 64, 19, 65, 22, 37, 17, 0)
s = 142: (0, 40, 42, 49, 38, 37, 30, 45, 22, 18, 19, 0)
s = 143: (0, 55, 36, 30, 27, 54, 20, 46, 9, 17, 22, 0)
s = 144: (0, 32, 25, 39, 26, 37, 16, 42, 17, 39, 19, 0)
s = 145: (0, 23, 22, 38, 30, 54, 34, 84, 20, 26, 11, 0)
s = 146: (0, 35, 23, 65, 18, 64, 26, 55, 11, 28, 16, 0)
s = 147: (0, 22, 27, 38, 21, 25, 17, 39, 17, 23, 22, 0)
s = 148: (0, 43, 32, 32, 14, 32, 19, 55, 23, 23, 19, 0)
s = 149: (0, 40, 21, 27, 20, 31, 27, 74, 17, 14, 12, 0)
s = 150: (0, 29, 20, 39, 35, 47, 27, 72, 17, 18, 16, 0)
s = 151: (0, 29, 35, 35, 29, 37, 21, 64, 21, 20, 25, 0)
s = 152: (0, 35, 28, 42, 16, 26, 18, 49, 16, 29, 10, 0)
s = 153: (0, 40, 27, 52, 25, 30, 28, 46, 20, 25, 25, 0)
s = 154: (0, 28, 27, 24, 39, 37, 23, 59, 11, 28, 17, 0)
s = 155: (0, 57, 17, 60, 17, 40, 23, 58, 18, 16, 11, 0)
s = 156: (0, 55, 31, 27, 28, 39, 26, 54, 13, 36, 19, 0)
s = 157: (0, 18, 22, 34, 29, 63, 17, 76, 10, 33, 13, 0)
s = 158: (0, 35, 40, 23, 14, 26, 20, 84, 11, 17, 17, 0)
s = 159: (0, 24, 37, 39, 22, 27, 35, 59, 22, 26, 19, 0)
s = 160: (0, 33, 33, 42, 24, 45, 27, 66, 23, 13, 15, 0)
s = 161: (0, 28, 22, 43, 28, 36, 28, 75, 16, 37, 11, 0)
s = 162: (0, 38, 25, 32, 35, 23, 24, 36, 23, 21, 14, 0)
s = 163: (0, 24, 16, 28, 33, 44, 28, 54, 23, 31, 18, 0)
s = 164: (0, 23, 36, 33, 20, 31, 21, 74, 12, 35, 16, 0)
s = 165: (0, 36, 19, 33, 30, 39, 16, 39, 21, 15, 12, 0)
s = 166: (0, 53, 42, 40, 22, 64, 23, 79, 9, 13, 21, 0)
s = 167: (0, 36, 30, 27, 26, 43, 17, 46, 10, 31, 14, 0)
s = 168: (0, 29, 36, 26, 23, 48, 16, 35, 16, 27, 24, 0)
s = 169: (0, 31, 30, 24, 17, 39, 18, 71, 16, 20, 27, 0)
s = 170: (0, 28, 39, 42, 15, 33, 28, 36, 12, 25, 10, 0)
s = 171: (0, 35, 16, 19, 19, 42, 17, 71, 14, 22, 18, 0)
s = 172: (0, 25, 22, 36, 21, 39, 18, 71, 24, 22, 21, 0)
s = 173: (0, 33, 21, 64, 14, 49, 27, 35, 19, 35, 13, 0)
s = 174: (0, 52, 23, 27, 16, 53, 30, 51, 15, 14, 20, 0)
s = 175: (0, 30, 21, 28, 31, 41, 26, 55, 11, 34, 16, 0)
s = 176: (0, 26, 30, 31, 15, 52, 30, 32, 13, 31, 13, 0)
s = 177: (0, 26, 35, 22, 16, 38, 18, 63, 15, 17, 11, 0)
s = 178: (0, 33, 20, 21, 18, 28, 28, 28, 8, 15, 17, 0)
s = 179: (0, 22, 35, 42, 29, 29, 19, 68, 14, 19, 20, 0)
s = 180: (0, 37, 37, 31, 32, 59, 27, 35, 21, 14, 15, 0)
s = 181: (0, 33, 30, 39, 15, 32, 24, 56, 16, 41, 16, 0)
s = 182: (0, 22, 20, 35, 18, 58, 31, 63, 13, 26, 20, 0)
s = 183: (0, 28, 45, 32, 21, 41, 14, 55, 10, 21, 13, 0)
s = 184: (0, 40, 36, 41, 22, 44, 31, 31, 15, 38, 28, 0)
s = 185: (0, 28, 21, 34, 16, 49, 23, 51, 18, 23, 17, 0)
s = 186: (0, 41, 33, 31, 20, 30, 29, 72, 17, 26, 19, 0)
s = 187: (0, 38, 37, 46, 21, 49, 26, 54, 21, 17, 16, 0)
s = 188: (0, 35, 45, 53, 21, 25, 20, 41, 16, 22, 15, 0)
s = 189: (0, 23, 18, 43, 28, 53, 21, 33, 13, 43, 16, 0)
s = 190: (0, 45, 27, 41, 30, 34, 20, 61, 19, 18, 14, 0)
s = 191: (0, 43, 33, 48, 23, 33, 25, 67, 22, 22, 14, 0)
s = 192: (0, 23, 19, 20, 23, 41, 22, 28, 14, 14, 11, 0)
s = 193: (0, 45, 35, 43, 17, 37, 26, 75, 18, 38, 14, 0)
s = 194: (0, 40, 17, 43, 22, 46, 25, 41, 23, 27, 21, 0)
s = 195: (0, 39, 30, 45, 14, 46, 17, 65, 26, 25, 24, 0)
s = 196: (0, 32, 19, 29, 18, 43, 28, 50, 15, 19, 26, 0)
s = 197: (0, 26, 28, 35, 33, 32, 37, 87, 13, 26, 28, 0)
s = 198: (0, 35, 41, 55, 31, 39, 34, 35, 14, 26, 16, 0)
s = 199: (0, 22, 23, 32, 27, 42, 33, 52, 15, 22, 12, 0)
s = 200: (0, 62, 36, 42, 16, 60, 34, 74, 20, 33, 12, 0)
------------------------------------------------------------------------
RESOURCE k = 2
s = 1: (0, 0, 8, 0, 12, 31, 0, 0, 2, 0, 0, 0)
s = 2: (0, 0, 7, 0, 12, 26, 0, 0, 3, 0, 0, 0)
s = 3: (0, 0, 8, 0, 10, 20, 0, 0, 4, 0, 0, 0)
s = 4: (0, 0, 9, 0, 7, 29, 0, 0, 3, 0, 0, 0)
s = 5: (0, 0, 7, 0, 8, 16, 0, 0, 2, 0, 0, 0)
s = 6: (0, 0, 10, 0, 16, 33, 0, 0, 2, 0, 0, 0)
s = 7: (0, 0, 9, 0, 10, 28, 0, 0, 2, 0, 0, 0)
s = 8: (0, 0, 5, 0, 8, 22, 0, 0, 3, 0, 0, 0)
s = 9: (0, 0, 7, 0, 7, 21, 0, 0, 2, 0, 0, 0)
s = 10: (0, 0, 6, 0, 8, 29, 0, 0, 2, 0, 0, 0)
s = 11: (0, 0, 7, 0, 11, 17, 0, 0, 3, 0, 0, 0)
s = 12: (0, 0, 7, 0, 9, 24, 0, 0, 3, 0, 0, 0)
s = 13: (0, 0, 7, 0, 10, 30, 0, 0, 3, 0, 0, 0)
s = 14: (0, 0, 10, 0, 14, 25, 0, 0, 2, 0, 0, 0)
s = 15: (0, 0, 8, 0, 6, 28, 0, 0, 2, 0, 0, 0)
s = 16: (0, 0, 9, 0, 8, 35, 0, 0, 3, 0, 0, 0)
s = 17: (0, 0, 5, 0, 16, 30, 0, 0, 2, 0, 0, 0)
s = 18: (0, 0, 6, 0, 11, 21, 0, 0, 3, 0, 0, 0)
s = 19: (0, 0, 9, 0, 7, 23, 0, 0, 3, 0, 0, 0)
s = 20: (0, 0, 9, 0, 8, 22, 0, 0, 2, 0, 0, 0)
s = 21: (0, 0, 8, 0, 8, 29, 0, 0, 2, 0, 0, 0)
s = 22: (0, 0, 10, 0, 13, 21, 0, 0, 3, 0, 0, 0)
s = 23: (0, 0, 11, 0, 10, 21, 0, 0, 2, 0, 0, 0)
s = 24: (0, 0, 11, 0, 8, 15, 0, 0, 2, 0, 0, 0)
s = 25: (0, 0, 10, 0, 14, 21, 0, 0, 3, 0, 0, 0)
s = 26: (0, 0, 7, 0, 6, 17, 0, 0, 3, 0, 0, 0)
s = 27: (0, 0, 11, 0, 12, 26, 0, 0, 2, 0, 0, 0)
s = 28: (0, 0, 12, 0, 8, 29, 0, 0, 3, 0, 0, 0)
s = 29: (0, 0, 6, 0, 9, 19, 0, 0, 2, 0, 0, 0)
s = 30: (0, 0, 8, 0, 12, 20, 0, 0, 2, 0, 0, 0)
s = 31: (0, 0, 7, 0, 9, 27, 0, 0, 2, 0, 0, 0)
s = 32: (0, 0, 14, 0, 9, 13, 0, 0, 3, 0, 0, 0)
s = 33: (0, 0, 11, 0, 13, 16, 0, 0, 2, 0, 0, 0)
s = 34: (0, 0, 7, 0, 9, 26, 0, 0, 2, 0, 0, 0)
s = 35: (0, 0, 8, 0, 11, 23, 0, 0, 2, 0, 0, 0)
s = 36: (0, 0, 9, 0, 16, 18, 0, 0, 3, 0, 0, 0)
s = 37: (0, 0, 8, 0, 11, 22, 0, 0, 2, 0, 0, 0)
s = 38: (0, 0, 9, 0, 7, 32, 0, 0, 3, 0, 0, 0)
s = 39: (0, 0, 9, 0, 6, 17, 0, 0, 2, 0, 0, 0)
s = 40: (0, 0, 10, 0, 14, 21, 0, 0, 2, 0, 0, 0)
s = 41: (0, 0, 8, 0, 10, 34, 0, 0, 2, 0, 0, 0)
s = 42: (0, 0, 6, 0, 9, 28, 0, 0, 2, 0, 0, 0)
s = 43: (0, 0, 7, 0, 6, 18, 0, 0, 3, 0, 0, 0)
s = 44: (0, 0, 9, 0, 12, 30, 0, 0, 3, 0, 0, 0)
s = 45: (0, 0, 13, 0, 11, 28, 0, 0, 3, 0, 0, 0)
s = 46: (0, 0, 10, 0, 12, 29, 0, 0, 2, 0, 0, 0)
s = 47: (0, 0, 6, 0, 13, 19, 0, 0, 4, 0, 0, 0)
s = 48: (0, 0, 10, 0, 9, 28, 0, 0, 2, 0, 0, 0)
s = 49: (0, 0, 6, 0, 8, 21, 0, 0, 3, 0, 0, 0)
s = 50: (0, 0, 10, 0, 12, 15, 0, 0, 2, 0, 0, 0)
s = 51: (0, 0, 9, 0, 17, 20, 0, 0, 2, 0, 0, 0)
s = 52: (0, 0, 9, 0, 14, 16, 0, 0, 2, 0, 0, 0)
s = 53: (0, 0, 11, 0, 9, 21, 0, 0, 2, 0, 0, 0)
s = 54: (0, 0, 11, 0, 12, 19, 0, 0, 2, 0, 0, 0)
s = 55: (0, 0, 12, 0, 7, 25, 0, 0, 2, 0, 0, 0)
s = 56: (0, 0, 7, 0, 9, 26, 0, 0, 2, 0, 0, 0)
s = 57: (0, 0, 8, 0, 9, 23, 0, 0, 2, 0, 0, 0)
s = 58: (0, 0, 11, 0, 12, 29, 0, 0, 3, 0, 0, 0)
s = 59: (0, 0, 11, 0, 7, 16, 0, 0, 2, 0, 0, 0)
s = 60: (0, 0, 6, 0, 7, 16, 0, 0, 2, 0, 0, 0)
s = 61: (0, 0, 7, 0, 15, 21, 0, 0, 2, 0, 0, 0)
s = 62: (0, 0, 7, 0, 8, 18, 0, 0, 2, 0, 0, 0)
s = 63: (0, 0, 10, 0, 11, 17, 0, 0, 2, 0, 0, 0)
s = 64: (0, 0, 8, 0, 13, 25, 0, 0, 2, 0, 0, 0)
s = 65: (0, 0, 8, 0, 11, 24, 0, 0, 3, 0, 0, 0)
s = 66: (0, 0, 7, 0, 10, 27, 0, 0, 2, 0, 0, 0)
s = 67: (0, 0, 10, 0, 9, 24, 0, 0, 2, 0, 0, 0)
s = 68: (0, 0, 8, 0, 12, 15, 0, 0, 2, 0, 0, 0)
s = 69: (0, 0, 6, 0, 12, 32, 0, 0, 2, 0, 0, 0)
s = 70: (0, 0, 8, 0, 9, 24, 0, 0, 2, 0, 0, 0)
s = 71: (0, 0, 6, 0, 11, 27, 0, 0, 3, 0, 0, 0)
s = 72: (0, 0, 10, 0, 11, 16, 0, 0, 2, 0, 0, 0)
s = 73: (0, 0, 10, 0, 8, 30, 0, 0, 3, 0, 0, 0)
s = 74: (0, 0, 10, 0, 11, 21, 0, 0, 3, 0, 0, 0)
s = 75: (0, 0, 7, 0, 11, 24, 0, 0, 4, 0, 0, 0)
s = 76: (0, 0, 9, 0, 16, 18, 0, 0, 3, 0, 0, 0)
s = 77: (0, 0, 10, 0, 12, 28, 0, 0, 2, 0, 0, 0)
s = 78: (0, 0, 7, 0, 19, 25, 0, 0, 2, 0, 0, 0)
s = 79: (0, 0, 8, 0, 10, 29, 0, 0, 2, 0, 0, 0)
s = 80: (0, 0, 8, 0, 12, 26, 0, 0, 2, 0, 0, 0)
s = 81: (0, 0, 11, 0, 9, 23, 0, 0, 2, 0, 0, 0)
s = 82: (0, 0, 8, 0, 10, 33, 0, 0, 4, 0, 0, 0)
s = 83: (0, 0, 11, 0, 8, 21, 0, 0, 3, 0, 0, 0)
s = 84: (0, 0, 10, 0, 10, 34, 0, 0, 4, 0, 0, 0)
s = 85: (0, 0, 8, 0, 10, 22, 0, 0, 3, 0, 0, 0)
s = 86: (0, 0, 7, 0, 12, 23, 0, 0, 2, 0, 0, 0)
s = 87: (0, 0, 9, 0, 14, 18, 0, 0, 2, 0, 0, 0)
s = 88: (0, 0, 12, 0, 13, 33, 0, 0, 3, 0, 0, 0)
s = 89: (0, 0, 6, 0, 9, 17, 0, 0, 3, 0, 0, 0)
s = 90: (0, 0, 10, 0, 9, 21, 0, 0, 2, 0, 0, 0)
s = 91: (0, 0, 7, 0, 17, 17, 0, 0, 3, 0, 0, 0)
s = 92: (0, 0, 9, 0, 13, 27, 0, 0, 3, 0, 0, 0)
s = 93: (0, 0, 11, 0, 9, 27, 0, 0, 2, 0, 0, 0)
s = 94: (0, 0, 10, 0, 7, 22, 0, 0, 2, 0, 0, 0)
s = 95: (0, 0, 7, 0, 11, 15, 0, 0, 3, 0, 0, 0)
s = 96: (0, 0, 11, 0, 9, 26, 0, 0, 3, 0, 0, 0)
s = 97: (0, 0, 14, 0, 10, 30, 0, 0, 2, 0, 0, 0)
s = 98: (0, 0, 9, 0, 11, 26, 0, 0, 4, 0, 0, 0)
s = 99: (0, 0, 7, 0, 8, 16, 0, 0, 3, 0, 0, 0)
s = 100: (0, 0, 11, 0, 12, 24, 0, 0, 4, 0, 0, 0)
s = 101: (0, 0, 8, 0, 9, 28, 0, 0, 3, 0, 0, 0)
s = 102: (0, 0, 11, 0, 10, 34, 0, 0, 2, 0, 0, 0)
s = 103: (0, 0, 13, 0, 9, 15, 0, 0, 2, 0, 0, 0)
s = 104: (0, 0, 7, 0, 13, 17, 0, 0, 2, 0, 0, 0)
s = 105: (0, 0, 9, 0, 12, 18, 0, 0, 3, 0, 0, 0)
s = 106: (0, 0, 7, 0, 17, 33, 0, 0, 3, 0, 0, 0)
s = 107: (0, 0, 5, 0, 8, 21, 0, 0, 2, 0, 0, 0)
s = 108: (0, 0, 7, 0, 8, 28, 0, 0, 2, 0, 0, 0)
s = 109: (0, 0, 7, 0, 11, 22, 0, 0, 2, 0, 0, 0)
s = 110: (0, 0, 9, 0, 6, 18, 0, 0, 2, 0, 0, 0)
s = 111: (0, 0, 8, 0, 9, 22, 0, 0, 3, 0, 0, 0)
s = 112: (0, 0, 9, 0, 14, 17, 0, 0, 2, 0, 0, 0)
s = 113: (0, 0, 7, 0, 7, 30, 0, 0, 2, 0, 0, 0)
s = 114: (0, 0, 5, 0, 13, 15, 0, 0, 2, 0, 0, 0)
s = 115: (0, 0, 6, 0, 7, 18, 0, 0, 2, 0, 0, 0)
s = 116: (0, 0, 9, 0, 14, 19, 0, 0, 2, 0, 0, 0)
s = 117: (0, 0, 13, 0, 14, 14, 0, 0, 2, 0, 0, 0)
s = 118: (0, 0, 6, 0, 10, 14, 0, 0, 2, 0, 0, 0)
s = 119: (0, 0, 11, 0, 10, 27, 0, 0, 2, 0, 0, 0)
s = 120: (0, 0, 6, 0, 8, 20, 0, 0, 2, 0, 0, 0)
s = 121: (0, 0, 7, 0, 9, 18, 0, 0, 2, 0, 0, 0)
s = 122: (0, 0, 6, 0, 8, 23, 0, 0, 3, 0, 0, 0)
s = 123: (0, 0, 8, 0, 15, 30, 0, 0, 3, 0, 0, 0)
s = 124: (0, 0, 8, 0, 10, 38, 0, 0, 2, 0, 0, 0)
s = 125: (0, 0, 9, 0, 12, 17, 0, 0, 4, 0, 0, 0)
s = 126: (0, 0, 6, 0, 14, 29, 0, 0, 2, 0, 0, 0)
s = 127: (0, 0, 8, 0, 8, 35, 0, 0, 2, 0, 0, 0)
s = 128: (0, 0, 7, 0, 16, 25, 0, 0, 3, 0, 0, 0)
s = 129: (0, 0, 6, 0, 11, 14, 0, 0, 3, 0, 0, 0)
s = 130: (0, 0, 7, 0, 18, 35, 0, 0, 3, 0, 0, 0)
s = 131: (0, 0, 12, 0, 12, 31, 0, 0, 2, 0, 0, 0)
s = 132: (0, 0, 13, 0, 11, 24, 0, 0, 3, 0, 0, 0)
s = 133: (0, 0, 6, 0, 11, 17, 0, 0, 3, 0, 0, 0)
s = 134: (0, 0, 14, 0, 10, 16, 0, 0, 2, 0, 0, 0)
s = 135: (0, 0, 6, 0, 10, 23, 0, 0, 3, 0, 0, 0)
s = 136: (0, 0, 14, 0, 9, 23, 0, 0, 2, 0, 0, 0)
s = 137: (0, 0, 5, 0, 8, 25, 0, 0, 3, 0, 0, 0)
s = 138: (0, 0, 10, 0, 9, 36, 0, 0, 2, 0, 0, 0)
s = 139: (0, 0, 7, 0, 15, 29, 0, 0, 3, 0, 0, 0)
s = 140: (0, 0, 6, 0, 16, 13, 0, 0, 2, 0, 0, 0)
s = 141: (0, 0, 13, 0, 12, 40, 0, 0, 3, 0, 0, 0)
s = 142: (0, 0, 12, 0, 17, 23, 0, 0, 3, 0, 0, 0)
s = 143: (0, 0, 11, 0, 13, 33, 0, 0, 2, 0, 0, 0)
s = 144: (0, 0, 7, 0, 12, 23, 0, 0, 3, 0, 0, 0)
s = 145: (0, 0, 7, 0, 14, 33, 0, 0, 3, 0, 0, 0)
s = 146: (0, 0, 7, 0, 9, 39, 0, 0, 2, 0, 0, 0)
s = 147: (0, 0, 8, 0, 10, 16, 0, 0, 3, 0, 0, 0)
s = 148: (0, 0, 9, 0, 7, 20, 0, 0, 3, 0, 0, 0)
s = 149: (0, 0, 6, 0, 9, 19, 0, 0, 3, 0, 0, 0)
s = 150: (0, 0, 6, 0, 16, 29, 0, 0, 3, 0, 0, 0)
s = 151: (0, 0, 10, 0, 13, 23, 0, 0, 3, 0, 0, 0)
s = 152: (0, 0, 8, 0, 8, 16, 0, 0, 3, 0, 0, 0)
s = 153: (0, 0, 8, 0, 12, 19, 0, 0, 3, 0, 0, 0)
s = 154: (0, 0, 8, 0, 18, 23, 0, 0, 2, 0, 0, 0)
s = 155: (0, 0, 5, 0, 8, 25, 0, 0, 3, 0, 0, 0)
s = 156: (0, 0, 9, 0, 13, 24, 0, 0, 2, 0, 0, 0)
s = 157: (0, 0, 7, 0, 14, 39, 0, 0, 2, 0, 0, 0)
s = 158: (0, 0, 12, 0, 6, 16, 0, 0, 2, 0, 0, 0)
s = 159: (0, 0, 11, 0, 10, 17, 0, 0, 3, 0, 0, 0)
s = 160: (0, 0, 10, 0, 11, 28, 0, 0, 3, 0, 0, 0)
s = 161: (0, 0, 7, 0, 13, 22, 0, 0, 3, 0, 0, 0)
s = 162: (0, 0, 8, 0, 16, 14, 0, 0, 4, 0, 0, 0)
s = 163: (0, 0, 5, 0, 15, 27, 0, 0, 3, 0, 0, 0)
s = 164: (0, 0, 11, 0, 9, 19, 0, 0, 2, 0, 0, 0)
s = 165: (0, 0, 6, 0, 14, 24, 0, 0, 3, 0, 0, 0)
s = 166: (0, 0, 12, 0, 10, 39, 0, 0, 2, 0, 0, 0)
s = 167: (0, 0, 9, 0, 12, 27, 0, 0, 2, 0, 0, 0)
s = 168: (0, 0, 11, 0, 11, 30, 0, 0, 3, 0, 0, 0)
s = 169: (0, 0, 9, 0, 8, 24, 0, 0, 3, 0, 0, 0)
s = 170: (0, 0, 12, 0, 7, 21, 0, 0, 2, 0, 0, 0)
s = 171: (0, 0, 5, 0, 9, 26, 0, 0, 2, 0, 0, 0)
s = 172: (0, 0, 7, 0, 10, 24, 0, 0, 4, 0, 0, 0)
s = 173: (0, 0, 6, 0, 7, 31, 0, 0, 3, 0, 0, 0)
s = 174: (0, 0, 7, 0, 8, 33, 0, 0, 2, 0, 0, 0)
s = 175: (0, 0, 6, 0, 14, 25, 0, 0, 2, 0, 0, 0)
s = 176: (0, 0, 9, 0, 7, 32, 0, 0, 2, 0, 0, 0)
s = 177: (0, 0, 10, 0, 8, 23, 0, 0, 2, 0, 0, 0)
s = 178: (0, 0, 6, 0, 8, 17, 0, 0, 2, 0, 0, 0)
s = 179: (0, 0, 10, 0, 14, 18, 0, 0, 2, 0, 0, 0)
s = 180: (0, 0, 11, 0, 15, 36, 0, 0, 3, 0, 0, 0)
s = 181: (0, 0, 9, 0, 7, 20, 0, 0, 3, 0, 0, 0)
s = 182: (0, 0, 6, 0, 8, 36, 0, 0, 2, 0, 0, 0)
s = 183: (0, 0, 13, 0, 10, 25, 0, 0, 2, 0, 0, 0)
s = 184: (0, 0, 11, 0, 10, 27, 0, 0, 2, 0, 0, 0)
s = 185: (0, 0, 6, 0, 8, 30, 0, 0, 3, 0, 0, 0)
s = 186: (0, 0, 10, 0, 9, 19, 0, 0, 3, 0, 0, 0)
s = 187: (0, 0, 11, 0, 10, 30, 0, 0, 3, 0, 0, 0)
s = 188: (0, 0, 13, 0, 10, 16, 0, 0, 3, 0, 0, 0)
s = 189: (0, 0, 6, 0, 13, 33, 0, 0, 2, 0, 0, 0)
s = 190: (0, 0, 8, 0, 14, 21, 0, 0, 3, 0, 0, 0)
s = 191: (0, 0, 10, 0, 11, 21, 0, 0, 3, 0, 0, 0)
s = 192: (0, 0, 6, 0, 11, 25, 0, 0, 2, 0, 0, 0)
s = 193: (0, 0, 10, 0, 8, 23, 0, 0, 3, 0, 0, 0)
s = 194: (0, 0, 5, 0, 10, 28, 0, 0, 3, 0, 0, 0)
s = 195: (0, 0, 9, 0, 7, 28, 0, 0, 4, 0, 0, 0)
s = 196: (0, 0, 6, 0, 8, 27, 0, 0, 2, 0, 0, 0)
s = 197: (0, 0, 8, 0, 15, 20, 0, 0, 2, 0, 0, 0)
s = 198: (0, 0, 12, 0, 14, 24, 0, 0, 2, 0, 0, 0)
s = 199: (0, 0, 7, 0, 13, 26, 0, 0, 2, 0, 0, 0)
s = 200: (0, 0, 11, 0, 8, 37, 0, 0, 3, 0, 0, 0)
------------------------------------------------------------------------
RESOURCE k = 3
s = 1: (0, 12, 0, 20, 0, 0, 11, 22, 0, 15, 8, 0)
s = 2: (0, 16, 0, 15, 0, 0, 12, 26, 0, 24, 10, 0)
s = 3: (0, 9, 0, 13, 0, 0, 13, 29, 0, 33, 7, 0)
s = 4: (0, 10, 0, 10, 0, 0, 7, 17, 0, 41, 7, 0)
s = 5: (0, 14, 0, 15, 0, 0, 18, 40, 0, 19, 8, 0)
s = 6: (0, 18, 0, 17, 0, 0, 9, 23, 0, 15, 8, 0)
s = 7: (0, 23, 0, 15, 0, 0, 9, 33, 0, 23, 8, 0)
s = 8: (0, 15, 0, 12, 0, 0, 11, 25, 0, 24, 6, 0)
s = 9: (0, 16, 0, 15, 0, 0, 10, 28, 0, 16, 8, 0)
s = 10: (0, 20, 0, 23, 0, 0, 12, 17, 0, 28, 8, 0)
s = 11: (0, 25, 0, 24, 0, 0, 18, 25, 0, 23, 12, 0)
s = 12: (0, 15, 0, 13, 0, 0, 11, 31, 0, 16, 9, 0)
s = 13: (0, 15, 0, 12, 0, 0, 12, 33, 0, 23, 7, 0)
s = 14: (0, 12, 0, 13, 0, 0, 9, 37, 0, 16, 12, 0)
s = 15: (0, 24, 0, 17, 0, 0, 15, 18, 0, 22, 7, 0)
s = 16: (0, 13, 0, 21, 0, 0, 10, 35, 0, 26, 8, 0)
s = 17: (0, 12, 0, 22, 0, 0, 15, 26, 0, 23, 13, 0)
s = 18: (0, 10, 0, 18, 0, 0, 16, 28, 0, 23, 10, 0)
s = 19: (0, 23, 0, 17, 0, 0, 14, 17, 0, 24, 9, 0)
s = 20: (0, 13, 0, 17, 0, 0, 14, 23, 0, 32, 10, 0)
s = 21: (0, 13, 0, 27, 0, 0, 9, 21, 0, 23, 9, 0)
s = 22: (0, 9, 0, 17, 0, 0, 11, 24, 0, 21, 11, 0)
s = 23: (0, 14, 0, 15, 0, 0, 9, 24, 0, 19, 12, 0)
s = 24: (0, 16, 0, 18, 0, 0, 12, 23, 0, 30, 11, 0)
s = 25: (0, 10, 0, 22, 0, 0, 15, 31, 0, 13, 10, 0)
s = 26: (0, 26, 0, 13, 0, 0, 10, 19, 0, 15, 11, 0)
s = 27: (0, 12, 0, 18, 0, 0, 16, 17, 0, 15, 15, 0)
s = 28: (0, 15, 0, 19, 0, 0, 12, 23, 0, 22, 8, 0)
s = 29: (0, 13, 0, 17, 0, 0, 19, 18, 0, 16, 6, 0)
s = 30: (0, 17, 0, 29, 0, 0, 18, 24, 0, 24, 6, 0)
s = 31: (0, 19, 0, 10, 0, 0, 15, 38, 0, 26, 16, 0)
s = 32: (0, 17, 0, 17, 0, 0, 14, 31, 0, 30, 8, 0)
s = 33: (0, 19, 0, 30, 0, 0, 9, 31, 0, 15, 10, 0)
s = 34: (0, 14, 0, 17, 0, 0, 13, 18, 0, 27, 11, 0)
s = 35: (0, 16, 0, 32, 0, 0, 12, 30, 0, 28, 10, 0)
s = 36: (0, 15, 0, 14, 0, 0, 9, 31, 0, 18, 12, 0)
s = 37: (0, 14, 0, 20, 0, 0, 21, 35, 0, 17, 7, 0)
s = 38: (0, 14, 0, 16, 0, 0, 13, 19, 0, 31, 7, 0)
s = 39: (0, 15, 0, 11, 0, 0, 11, 29, 0, 22, 14, 0)
s = 40: (0, 18, 0, 22, 0, 0, 7, 39, 0, 23, 6, 0)
s = 41: (0, 17, 0, 21, 0, 0, 16, 37, 0, 37, 11, 0)
s = 42: (0, 13, 0, 16, 0, 0, 11, 24, 0, 23, 12, 0)
s = 43: (0, 12, 0, 15, 0, 0, 9, 18, 0, 34, 8, 0)
s = 44: (0, 19, 0, 18, 0, 0, 12, 28, 0, 19, 6, 0)
s = 45: (0, 16, 0, 16, 0, 0, 9, 25, 0, 29, 7, 0)
s = 46: (0, 22, 0, 24, 0, 0, 8, 42, 0, 31, 14, 0)
s = 47: (0, 15, 0, 21, 0, 0, 10, 27, 0, 21, 11, 0)
s = 48: (0, 13, 0, 12, 0, 0, 10, 32, 0, 16, 10, 0)
s = 49: (0, 11, 0, 11, 0, 0, 16, 28, 0, 23, 7, 0)
s = 50: (0, 13, 0, 24, 0, 0, 19, 24, 0, 20, 14, 0)
s = 51: (0, 24, 0, 17, 0, 0, 8, 49, 0, 25, 12, 0)
s = 52: (0, 20, 0, 17, 0, 0, 9, 15, 0, 26, 7, 0)
s = 53: (0, 14, 0, 18, 0, 0, 8, 22, 0, 40, 7, 0)
s = 54: (0, 21, 0, 13, 0, 0, 13, 35, 0, 20, 16, 0)
s = 55: (0, 12, 0, 20, 0, 0, 9, 22, 0, 43, 11, 0)
s = 56: (0, 16, 0, 20, 0, 0, 15, 22, 0, 27, 10, 0)
s = 57: (0, 18, 0, 28, 0, 0, 12, 26, 0, 25, 12, 0)
s = 58: (0, 21, 0, 11, 0, 0, 20, 25, 0, 33, 8, 0)
s = 59: (0, 17, 0, 16, 0, 0, 8, 18, 0, 19, 8, 0)
s = 60: (0, 17, 0, 19, 0, 0, 16, 23, 0, 21, 10, 0)
s = 61: (0, 13, 0, 25, 0, 0, 12, 19, 0, 27, 12, 0)
s = 62: (0, 14, 0, 26, 0, 0, 16, 17, 0, 25, 17, 0)
s = 63: (0, 25, 0, 23, 0, 0, 11, 18, 0, 16, 15, 0)
s = 64: (0, 20, 0, 16, 0, 0, 11, 22, 0, 34, 10, 0)
s = 65: (0, 9, 0, 16, 0, 0, 7, 22, 0, 30, 11, 0)
s = 66: (0, 15, 0, 24, 0, 0, 15, 21, 0, 16, 7, 0)
s = 67: (0, 12, 0, 25, 0, 0, 17, 23, 0, 25, 11, 0)
s = 68: (0, 15, 0, 12, 0, 0, 9, 16, 0, 23, 6, 0)
s = 69: (0, 13, 0, 13, 0, 0, 13, 37, 0, 29, 10, 0)
s = 70: (0, 17, 0, 19, 0, 0, 17, 26, 0, 20, 8, 0)
s = 71: (0, 11, 0, 21, 0, 0, 17, 26, 0, 20, 11, 0)
s = 72: (0, 18, 0, 19, 0, 0, 11, 34, 0, 26, 10, 0)
s = 73: (0, 12, 0, 21, 0, 0, 14, 47, 0, 24, 9, 0)
s = 74: (0, 12, 0, 18, 0, 0, 12, 26, 0, 35, 8, 0)
s = 75: (0, 12, 0, 23, 0, 0, 10, 23, 0, 21, 12, 0)
s = 76: (0, 18, 0, 14, 0, 0, 11, 32, 0, 26, 11, 0)
s = 77: (0, 12, 0, 21, 0, 0, 13, 15, 0, 29, 9, 0)
s = 78: (0, 14, 0, 17, 0, 0, 15, 21, 0, 15, 9, 0)
s = 79: (0, 21, 0, 17, 0, 0, 13, 32, 0, 40, 19, 0)
s = 80: (0, 12, 0, 13, 0, 0, 22, 26, 0, 23, 10, 0)
s = 81: (0, 12, 0, 16, 0, 0, 10, 29, 0, 23, 6, 0)
s = 82: (0, 15, 0, 17, 0, 0, 17, 33, 0, 23, 8, 0)
s = 83: (0, 17, 0, 12, 0, 0, 12, 19, 0, 14, 12, 0)
s = 84: (0, 10, 0, 20, 0, 0, 9, 20, 0, 18, 15, 0)
s = 85: (0, 21, 0, 15, 0, 0, 12, 41, 0, 25, 10, 0)
s = 86: (0, 18, 0, 13, 0, 0, 10, 29, 0, 23, 13, 0)
s = 87: (0, 15, 0, 21, 0, 0, 12, 35, 0, 26, 13, 0)
s = 88: (0, 20, 0, 21, 0, 0, 14, 17, 0, 27, 10, 0)
s = 89: (0, 12, 0, 23, 0, 0, 10, 38, 0, 28, 13, 0)
s = 90: (0, 9, 0, 14, 0, 0, 11, 40, 0, 14, 11, 0)
s = 91: (0, 19, 0, 26, 0, 0, 12, 23, 0, 24, 14, 0)
s = 92: (0, 21, 0, 11, 0, 0, 10, 25, 0, 24, 12, 0)
s = 93: (0, 18, 0, 19, 0, 0, 9, 26, 0, 40, 12, 0)
s = 94: (0, 13, 0, 24, 0, 0, 9, 27, 0, 29, 17, 0)
s = 95: (0, 16, 0, 16, 0, 0, 11, 19, 0, 41, 9, 0)
s = 96: (0, 16, 0, 17, 0, 0, 18, 30, 0, 24, 14, 0)
s = 97: (0, 19, 0, 20, 0, 0, 20, 25, 0, 27, 12, 0)
s = 98: (0, 14, 0, 22, 0, 0, 11, 26, 0, 24, 9, 0)
s = 99: (0, 16, 0, 18, 0, 0, 11, 31, 0, 34, 10, 0)
s = 100: (0, 18, 0, 20, 0, 0, 8, 35, 0, 19, 9, 0)
s = 101: (0, 15, 0, 17, 0, 0, 16, 28, 0, 22, 11, 0)
s = 102: (0, 16, 0, 16, 0, 0, 13, 22, 0, 35, 10, 0)
s = 103: (0, 21, 0, 22, 0, 0, 18, 26, 0, 17, 17, 0)
s = 104: (0, 20, 0, 26, 0, 0, 15, 35, 0, 28, 8, 0)
s = 105: (0, 9, 0, 12, 0, 0, 11, 31, 0, 21, 12, 0)
s = 106: (0, 11, 0, 35, 0, 0, 9, 31, 0, 34, 16, 0)
s = 107: (0, 13, 0, 18, 0, 0, 12, 22, 0, 16, 9, 0)
s = 108: (0, 21, 0, 11, 0, 0, 13, 26, 0, 22, 14, 0)
s = 109: (0, 20, 0, 17, 0, 0, 12, 46, 0, 20, 12, 0)
s = 110: (0, 17, 0, 16, 0, 0, 12, 19, 0, 34, 13, 0)
s = 111: (0, 18, 0, 26, 0, 0, 10, 16, 0, 22, 7, 0)
s = 112: (0, 24, 0, 17, 0, 0, 9, 49, 0, 14, 8, 0)
s = 113: (0, 11, 0, 18, 0, 0, 20, 34, 0, 18, 8, 0)
s = 114: (0, 24, 0, 15, 0, 0, 16, 22, 0, 17, 7, 0)
s = 115: (0, 10, 0, 24, 0, 0, 9, 22, 0, 24, 8, 0)
s = 116: (0, 19, 0, 15, 0, 0, 12, 32, 0, 21, 10, 0)
s = 117: (0, 11, 0, 16, 0, 0, 14, 27, 0, 29, 9, 0)
s = 118: (0, 20, 0, 17, 0, 0, 11, 22, 0, 23, 6, 0)
s = 119: (0, 11, 0, 23, 0, 0, 10, 27, 0, 18, 11, 0)
s = 120: (0, 14, 0, 17, 0, 0, 14, 26, 0, 26, 9, 0)
s = 121: (0, 20, 0, 17, 0, 0, 9, 18, 0, 27, 12, 0)
s = 122: (0, 18, 0, 19, 0, 0, 13, 22, 0, 24, 13, 0)
s = 123: (0, 13, 0, 13, 0, 0, 17, 21, 0, 24, 6, 0)
s = 124: (0, 15, 0, 14, 0, 0, 9, 34, 0, 22, 14, 0)
s = 125: (0, 17, 0, 16, 0, 0, 15, 20, 0, 22, 8, 0)
s = 126: (0, 15, 0, 10, 0, 0, 11, 24, 0, 20, 6, 0)
s = 127: (0, 20, 0, 23, 0, 0, 9, 18, 0, 24, 12, 0)
s = 128: (0, 15, 0, 21, 0, 0, 13, 20, 0, 25, 12, 0)
s = 129: (0, 12, 0, 26, 0, 0, 8, 28, 0, 21, 9, 0)
s = 130: (0, 28, 0, 18, 0, 0, 10, 23, 0, 38, 7, 0)
s = 131: (0, 19, 0, 16, 0, 0, 8, 22, 0, 17, 16, 0)
s = 132: (0, 18, 0, 19, 0, 0, 8, 39, 0, 20, 15, 0)
s = 133: (0, 17, 0, 30, 0, 0, 15, 28, 0, 27, 11, 0)
s = 134: (0, 15, 0, 21, 0, 0, 11, 23, 0, 20, 15, 0)
s = 135: (0, 21, 0, 21, 0, 0, 15, 22, 0, 36, 8, 0)
s = 136: (0, 21, 0, 20, 0, 0, 9, 30, 0, 23, 10, 0)
s = 137: (0, 24, 0, 16, 0, 0, 10, 27, 0, 18, 13, 0)
s = 138: (0, 17, 0, 17, 0, 0, 10, 27, 0, 24, 9, 0)
s = 139: (0, 15, 0, 14, 0, 0, 13, 30, 0, 23, 7, 0)
s = 140: (0, 23, 0, 18, 0, 0, 11, 25, 0, 21, 9, 0)
s = 141: (0, 19, 0, 15, 0, 0, 10, 35, 0, 37, 11, 0)
s = 142: (0, 17, 0, 25, 0, 0, 17, 24, 0, 18, 12, 0)
s = 143: (0, 24, 0, 15, 0, 0, 11, 25, 0, 17, 14, 0)
s = 144: (0, 14, 0, 20, 0, 0, 9, 23, 0, 39, 12, 0)
s = 145: (0, 10, 0, 19, 0, 0, 19, 45, 0, 26, 7, 0)
s = 146: (0, 15, 0, 33, 0, 0, 14, 29, 0, 28, 10, 0)
s = 147: (0, 10, 0, 19, 0, 0, 10, 21, 0, 23, 14, 0)
s = 148: (0, 19, 0, 16, 0, 0, 11, 29, 0, 23, 12, 0)
s = 149: (0, 17, 0, 14, 0, 0, 15, 39, 0, 14, 8, 0)
s = 150: (0, 13, 0, 20, 0, 0, 15, 38, 0, 18, 10, 0)
s = 151: (0, 13, 0, 18, 0, 0, 12, 34, 0, 20, 16, 0)
s = 152: (0, 15, 0, 21, 0, 0, 10, 26, 0, 29, 6, 0)
s = 153: (0, 17, 0, 26, 0, 0, 15, 25, 0, 25, 16, 0)
s = 154: (0, 12, 0, 12, 0, 0, 13, 32, 0, 28, 11, 0)
s = 155: (0, 25, 0, 30, 0, 0, 13, 31, 0, 16, 7, 0)
s = 156: (0, 24, 0, 14, 0, 0, 14, 29, 0, 36, 12, 0)
s = 157: (0, 8, 0, 17, 0, 0, 10, 41, 0, 33, 8, 0)
s = 158: (0, 15, 0, 12, 0, 0, 11, 45, 0, 17, 11, 0)
s = 159: (0, 11, 0, 20, 0, 0, 19, 31, 0, 26, 12, 0)
s = 160: (0, 14, 0, 21, 0, 0, 15, 35, 0, 13, 10, 0)
s = 161: (0, 12, 0, 22, 0, 0, 15, 40, 0, 37, 7, 0)
s = 162: (0, 17, 0, 16, 0, 0, 14, 19, 0, 21, 9, 0)
s = 163: (0, 11, 0, 14, 0, 0, 16, 29, 0, 31, 11, 0)
s = 164: (0, 10, 0, 17, 0, 0, 12, 40, 0, 35, 10, 0)
s = 165: (0, 16, 0, 17, 0, 0, 9, 21, 0, 15, 8, 0)
s = 166: (0, 23, 0, 20, 0, 0, 13, 42, 0, 13, 14, 0)
s = 167: (0, 16, 0, 14, 0, 0, 10, 25, 0, 31, 9, 0)
s = 168: (0, 13, 0, 13, 0, 0, 9, 19, 0, 27, 15, 0)
s = 169: (0, 14, 0, 12, 0, 0, 10, 38, 0, 20, 17, 0)
s = 170: (0, 12, 0, 21, 0, 0, 15, 19, 0, 25, 6, 0)
s = 171: (0, 15, 0, 10, 0, 0, 10, 38, 0, 22, 12, 0)
s = 172: (0, 11, 0, 18, 0, 0, 10, 38, 0, 22, 14, 0)
s = 173: (0, 14, 0, 32, 0, 0, 15, 19, 0, 35, 8, 0)
s = 174: (0, 22, 0, 14, 0, 0, 16, 27, 0, 14, 13, 0)
s = 175: (0, 13, 0, 14, 0, 0, 14, 29, 0, 34, 10, 0)
s = 176: (0, 11, 0, 16, 0, 0, 17, 17, 0, 31, 8, 0)
s = 177: (0, 11, 0, 11, 0, 0, 10, 33, 0, 17, 7, 0)
s = 178: (0, 15, 0, 11, 0, 0, 15, 15, 0, 15, 11, 0)
s = 179: (0, 10, 0, 21, 0, 0, 11, 36, 0, 19, 13, 0)
s = 180: (0, 16, 0, 16, 0, 0, 15, 19, 0, 14, 10, 0)
s = 181: (0, 14, 0, 20, 0, 0, 13, 30, 0, 41, 10, 0)
s = 182: (0, 10, 0, 18, 0, 0, 17, 34, 0, 26, 12, 0)
s = 183: (0, 12, 0, 16, 0, 0, 8, 29, 0, 21, 9, 0)
s = 184: (0, 17, 0, 21, 0, 0, 17, 16, 0, 38, 18, 0)
s = 185: (0, 12, 0, 17, 0, 0, 13, 27, 0, 23, 11, 0)
s = 186: (0, 18, 0, 16, 0, 0, 16, 39, 0, 26, 12, 0)
s = 187: (0, 17, 0, 23, 0, 0, 14, 29, 0, 17, 10, 0)
s = 188: (0, 15, 0, 27, 0, 0, 11, 22, 0, 22, 9, 0)
s = 189: (0, 10, 0, 22, 0, 0, 12, 18, 0, 43, 10, 0)
s = 190: (0, 20, 0, 21, 0, 0, 11, 33, 0, 18, 9, 0)
s = 191: (0, 19, 0, 24, 0, 0, 14, 36, 0, 22, 9, 0)
s = 192: (0, 10, 0, 10, 0, 0, 12, 15, 0, 14, 7, 0)
s = 193: (0, 20, 0, 22, 0, 0, 15, 40, 0, 38, 9, 0)
s = 194: (0, 18, 0, 22, 0, 0, 14, 22, 0, 27, 14, 0)
s = 195: (0, 17, 0, 23, 0, 0, 9, 35, 0, 25, 15, 0)
s = 196: (0, 14, 0, 15, 0, 0, 16, 27, 0, 19, 17, 0)
s = 197: (0, 12, 0, 18, 0, 0, 20, 46, 0, 26, 18, 0)
s = 198: (0, 15, 0, 28, 0, 0, 19, 19, 0, 26, 10, 0)
s = 199: (0, 10, 0, 16, 0, 0, 18, 28, 0, 22, 8, 0)
s = 200: (0, 27, 0, 21, 0, 0, 19, 39, 0, 33, 8, 0)
************************************************************************
ES/LS-VALUES:
jobnr.   ES(i)    LS(i)
------------------------------------------------------------------------
  0        0        0
  1        0       60
  2        0       65
  3        0       58
  4        5       66
  5        5       69
  6        9       70
  7        5       64
  8       12       74
  9       10       70
 10       10       74
 11       15       76
************************************************************************
BIG-M-VALUES:
M1 = 40, M2 = 166
************************************************************************
